# Objective value = 1.0178630000000383e+04
I_0_0 3884
I_0_1 4946.00000000008
I_0_2 4.1929999999996626e+03
I_0_3 5.7239999999997581e+03
I_1_0 14
I_1_1 0
I_1_2 14
I_1_3 0
I_2_0 14
I_2_1 3.2235440904831625e-11
I_2_2 1.3999999999973458e+01
I_2_3 0
I_3_0 16
I_3_1 -1.1646683617527742e-11
I_3_2 1.6000000000011656e+01
I_3_3 -1.1646683617527742e-11
I_4_0 36
I_4_1 1.8000000000000352e+01
I_4_2 3.5999999999999645e+01
I_4_3 1.7999999999999648e+01
I_5_0 48
I_5_1 4.8000000000034518e+01
I_5_2 2.4000000000034522e+01
I_5_3 -6.9040932629982961e-11
I_6_0 56
I_6_1 28
I_6_2 56
I_6_3 28
I_7_0 64
I_7_1 3.1999999999925095e+01
I_7_2 6.4000000000074891e+01
I_7_3 3.2000000000074891e+01
I_8_0 70
I_8_1 3.5000000000010608e+01
I_8_2 69.9999999999894
I_8_3 34.9999999999894
I_9_0 36
I_9_1 -1.4457934849332332e-11
I_9_2 3.6000000000014452e+01
I_9_3 -1.4457934849332332e-11
I_10_0 37
I_10_1 0
I_10_2 37
I_10_3 0
I_11_0 40
I_11_1 0
I_11_2 40
I_11_3 0
I_12_0 82
I_12_1 4.1000000000166132e+01
I_12_2 82
I_12_3 41
I_13_0 84
I_13_1 42
I_13_2 84
I_13_3 42
I_14_0 86
I_14_1 43
I_14_2 86
I_14_3 4.2999999999999993e+01
I_15_0 44
I_15_1 -3.9909889592074390e-12
I_15_2 44
I_15_3 0
I_16_0 45
I_16_1 0
I_16_2 45
I_16_3 0
I_17_0 46
I_17_1 0
I_17_2 46
I_17_3 -1.9151347174783950e-15
I_18_0 48
I_18_1 -1.3322676295501878e-15
I_18_2 48
I_18_3 -1.3322676295501878e-15
I_19_0 98
I_19_1 4.9000000000001172e+01
I_19_2 9.8000000000001165e+01
I_19_3 4.9000000000001172e+01
I_20_0 55
I_20_1 0
I_20_2 55
I_20_3 0
I_21_0 56
I_21_1 -4.07633926613471e-11
I_21_2 56.0000000000408
I_21_3 -4.07633926613471e-11
I_22_0 128
I_22_1 64
I_22_2 1.2800000000004260e+02
I_22_3 6.3999999999952465e+01
I_23_0 64
I_23_1 64
I_23_2 6.4000000000094786e+01
I_23_3 -9.4778629389224989e-11
I_24_0 158
I_24_1 79
I_24_2 1.5799999999996919e+02
I_24_3 7.9000000000015447e+01
I_25_0 164
I_25_1 81.9999999998755
I_25_2 164
I_25_3 8.2000000000342851e+01
I_26_0 176
I_26_1 176
I_26_2 88
I_26_3 0
I_27_0 96
I_27_1 96
I_27_2 96
I_27_3 0
I_28_0 196
I_28_1 196
I_28_2 9.8000000000215991e+01
I_28_3 2.1599255717319465e-10
I_29_0 98
I_29_1 -5.4180604447395808e-11
I_29_2 9.7999999999998082e+01
I_29_3 1.9040324872321435e-12
I_30_0 198
I_30_1 198
I_30_2 99
I_30_3 0
q_1_0 0
q_1_1 28
q_1_2 0
q_2_0 3.2235440904831625e-11
q_2_1 2.7999999999941224e+01
q_2_2 2.6542323894318542e-11
q_3_0 -1.1646683617527742e-11
q_3_1 3.2000000000023306e+01
q_3_2 -2.3303137197672186e-11
q_4_0 3.5096925365962761e-13
q_4_1 35.9999999999993
q_4_2 0
q_5_0 2.4000000000034518e+01
q_5_1 0
q_5_2 -1.0356139894497438e-10
q_6_0 0
q_6_1 56
q_6_2 0
q_7_0 -7.4903638846990361e-11
q_7_1 6.4000000000149782e+01
q_7_2 0
q_8_0 1.0610123890586465e-11
q_8_1 69.9999999999788
q_8_2 0
q_9_0 -1.4457934849332332e-11
q_9_1 72.0000000000289
q_9_2 -2.8910374094692770e-11
q_10_0 0
q_10_1 74
q_10_2 0
q_11_0 0
q_11_1 80
q_11_2 0
q_12_0 1.6612921716046333e-10
q_12_1 8.1999999999833861e+01
q_12_2 0
q_13_0 0
q_13_1 84
q_13_2 0
q_14_0 0
q_14_1 86
q_14_2 0
q_15_0 -3.9909889592074390e-12
q_15_1 88.000000000004
q_15_2 0
q_16_0 0
q_16_1 90
q_16_2 0
q_17_0 0
q_17_1 92
q_17_2 -1.9151347174783950e-15
q_18_0 -1.3322676295501878e-15
q_18_1 96
q_18_2 -1.3322676295501878e-15
q_19_0 1.1730338024707561e-12
q_19_1 98
q_19_2 0
q_20_0 0
q_20_1 110
q_20_2 0
q_21_0 -4.07633926613471e-11
q_21_1 1.1200000000008157e+02
q_21_2 -8.1562756548692050e-11
q_22_0 0
q_22_1 1.2799999999999505e+02
q_22_2 -9.0139451458526310e-11
q_23_0 64
q_23_1 6.4000000000094786e+01
q_23_2 -1.8956503033962235e-10
q_24_0 0
q_24_1 1.5799999999996916e+02
q_24_2 4.6271071319392132e-11
q_25_0 -1.2450436462898811e-10
q_25_1 1.6400000000005105e+02
q_25_2 3.4285458077181663e-10
q_26_0 88
q_26_1 0
q_26_2 0
q_27_0 96
q_27_1 96
q_27_2 0
q_28_0 98
q_28_1 2.1599255717319465e-10
q_28_2 0
q_29_0 -5.4180604447395808e-11
q_29_1 1.9600000000005227e+02
q_29_2 3.8224978737844140e-12
q_30_0 99
q_30_1 0
q_30_2 0
y_0_0 1
y_0_1 1
y_0_2 -8.81239525796218e-14
y_1_0 0
y_1_1 1
y_1_2 0
y_2_0 2.3025314932022592e-12
y_2_1 9.9999999999810407e-01
y_2_2 0
y_3_0 -7.2791772609548389e-13
y_3_1 1.0000000000007285e+00
y_3_2 -7.2791772609548389e-13
y_4_0 1.9498291869979312e-14
y_4_1 9.9999999999998046e-01
y_4_2 0
y_5_0 1.0000000000014382e+00
y_5_1 0
y_5_2 -1.4383527631246448e-12
y_6_0 0
y_6_1 1
y_6_2 0
y_7_0 -2.3407387139684488e-12
y_7_1 1.0000000000023404e+00
y_7_2 0
y_8_0 3.03146396873899e-13
y_8_1 9.9999999999969735e-01
y_8_2 0
y_9_0 -4.0160930137034256e-13
y_9_1 1.0000000000004015e+00
y_9_2 -4.0160930137034256e-13
y_10_0 0
y_10_1 1
y_10_2 0
y_11_0 0
y_11_1 1
y_11_2 0
y_12_0 4.0519321258649592e-12
y_12_1 1
y_12_2 0
y_13_0 0
y_13_1 1
y_13_2 0
y_14_0 0
y_14_1 1
y_14_2 0
y_15_0 -9.07042945274418e-14
y_15_1 1
y_15_2 0
y_16_0 0
y_16_1 1
y_16_2 0
y_17_0 0
y_17_1 1
y_17_2 -4.1633363423443370e-17
y_18_0 -2.7755575615628914e-17
y_18_1 1
y_18_2 -2.7755575615628914e-17
y_19_0 2.3939465356546040e-14
y_19_1 1
y_19_2 0
y_20_0 0
y_20_1 1
y_20_2 0
y_21_0 -7.2791772609548389e-13
y_21_1 1.0000000000007285e+00
y_21_2 -7.2791772609548389e-13
y_22_0 0
y_22_1 9.9999999999996136e-01
y_22_2 -7.0418670894412116e-13
y_23_0 1
y_23_1 1.0000000000014810e+00
y_23_2 -1.4809160842066404e-12
y_24_0 0
y_24_1 9.9999999999980482e-01
y_24_2 1.9523658784553643e-13
y_25_0 -1.5183459101096110e-12
y_25_1 1.0000000000003111e+00
y_25_2 1.3937178080155148e-12
y_26_0 1
y_26_1 0
y_26_2 0
y_27_0 1
y_27_1 1
y_27_2 0
y_28_0 1
y_28_1 2.2040008706980529e-12
y_28_2 0
y_29_0 -5.5286331068771233e-13
y_29_1 9.9999999999998046e-01
y_29_2 1.9428902930940239e-14
y_30_0 1
y_30_1 0
y_30_2 0
x_0_1_0 0
x_0_1_1 0
x_0_1_2 0
x_0_2_0 0
x_0_2_1 0
x_0_2_2 0
x_0_3_0 0
x_0_3_1 0
x_0_3_2 0
x_0_4_0 0
x_0_4_1 0
x_0_4_2 0
x_0_5_0 9.13324971207885e-13
x_0_5_1 0
x_0_5_2 0
x_0_6_0 0
x_0_6_1 -2.9664326550715714e-12
x_0_6_2 0
x_0_7_0 0
x_0_7_1 0
x_0_7_2 0
x_0_8_0 0
x_0_8_1 0
x_0_8_2 0
x_0_9_0 0
x_0_9_1 8.9822547810449741e-13
x_0_9_2 0
x_0_10_0 0
x_0_10_1 0
x_0_10_2 0
x_0_11_0 0
x_0_11_1 -1.3854736934693826e-13
x_0_11_2 0
x_0_12_0 0
x_0_12_1 0
x_0_12_2 0
x_0_13_0 0
x_0_13_1 0
x_0_13_2 0
x_0_14_0 0
x_0_14_1 0
x_0_14_2 0
x_0_15_0 0
x_0_15_1 1.0000000000024380e+00
x_0_15_2 0
x_0_16_0 0
x_0_16_1 0
x_0_16_2 0
x_0_17_0 0
x_0_17_1 0
x_0_17_2 0
x_0_18_0 0
x_0_18_1 0
x_0_18_2 0
x_0_19_0 0
x_0_19_1 0
x_0_19_2 0
x_0_20_0 0
x_0_20_1 0
x_0_20_2 0
x_0_21_0 0
x_0_21_1 0
x_0_21_2 0
x_0_22_0 0
x_0_22_1 0
x_0_22_2 0
x_0_23_0 9.9999999999603628e-01
x_0_23_1 9.9999999999976863e-01
x_0_23_2 -1.7624790515924360e-13
x_0_24_0 0
x_0_24_1 0
x_0_24_2 0
x_0_25_0 0
x_0_25_1 0
x_0_25_2 0
x_0_26_0 0
x_0_26_1 0
x_0_26_2 0
x_0_27_0 0
x_0_27_1 0
x_0_27_2 0
x_0_28_0 0
x_0_28_1 0
x_0_28_2 0
x_0_29_0 0
x_0_29_1 0
x_0_29_2 0
x_0_30_0 1.0000000000030611e+00
x_0_30_1 0
x_0_30_2 0
x_1_2_0 0
x_1_2_1 0
x_1_2_2 0
x_1_3_0 0
x_1_3_1 0
x_1_3_2 0
x_1_4_0 3.8080649744642869e-14
x_1_4_1 -2.5361657218780920e-12
x_1_4_2 -3.8080649744642869e-14
x_1_5_0 0
x_1_5_1 0
x_1_5_2 0
x_1_6_0 0
x_1_6_1 0
x_1_6_2 0
x_1_7_0 0
x_1_7_1 0
x_1_7_2 0
x_1_8_0 0
x_1_8_1 0
x_1_8_2 0
x_1_9_0 0
x_1_9_1 0
x_1_9_2 0
x_1_10_0 0
x_1_10_1 0
x_1_10_2 0
x_1_11_0 0
x_1_11_1 0
x_1_11_2 0
x_1_12_0 0
x_1_12_1 0
x_1_12_2 0
x_1_13_0 0
x_1_13_1 0
x_1_13_2 0
x_1_14_0 0
x_1_14_1 1
x_1_14_2 0
x_1_15_0 0
x_1_15_1 0
x_1_15_2 0
x_1_16_0 0
x_1_16_1 0
x_1_16_2 0
x_1_17_0 0
x_1_17_1 0
x_1_17_2 0
x_1_18_0 0
x_1_18_1 0
x_1_18_2 0
x_1_19_0 0
x_1_19_1 0
x_1_19_2 3.8080649744642869e-14
x_1_20_0 0
x_1_20_1 0
x_1_20_2 0
x_1_21_0 0
x_1_21_1 0
x_1_21_2 0
x_1_22_0 0
x_1_22_1 0
x_1_22_2 0
x_1_23_0 0
x_1_23_1 0
x_1_23_2 0
x_1_24_0 0
x_1_24_1 0
x_1_24_2 0
x_1_25_0 0
x_1_25_1 0
x_1_25_2 0
x_1_26_0 0
x_1_26_1 0
x_1_26_2 0
x_1_27_0 0
x_1_27_1 0
x_1_27_2 0
x_1_28_0 0
x_1_28_1 0
x_1_28_2 0
x_1_29_0 -3.8080649744642869e-14
x_1_29_1 1.0000000000025362e+00
x_1_29_2 0
x_1_30_0 0
x_1_30_1 0
x_1_30_2 0
x_2_3_0 0
x_2_3_1 0
x_2_3_2 0
x_2_4_0 0
x_2_4_1 0
x_2_4_2 0
x_2_5_0 0
x_2_5_1 0
x_2_5_2 0
x_2_6_0 0
x_2_6_1 0
x_2_6_2 0
x_2_7_0 0
x_2_7_1 0
x_2_7_2 0
x_2_8_0 1.1942814294922637e-12
x_2_8_1 9.9999999999939415e-01
x_2_8_2 1.3937178080155148e-12
x_2_9_0 0
x_2_9_1 0
x_2_9_2 0
x_2_10_0 0
x_2_10_1 0
x_2_10_2 0
x_2_11_0 0
x_2_11_1 0
x_2_11_2 0
x_2_12_0 0
x_2_12_1 0
x_2_12_2 0
x_2_13_0 0
x_2_13_1 0
x_2_13_2 0
x_2_14_0 0
x_2_14_1 0
x_2_14_2 0
x_2_15_0 0
x_2_15_1 -2.4380220065012281e-12
x_2_15_2 0
x_2_16_0 0
x_2_16_1 5.0487392044828994e-13
x_2_16_2 0
x_2_17_0 0
x_2_17_1 0
x_2_17_2 0
x_2_18_0 0
x_2_18_1 0
x_2_18_2 0
x_2_19_0 0
x_2_19_1 0
x_2_19_2 0
x_2_20_0 0
x_2_20_1 0
x_2_20_2 0
x_2_21_0 0
x_2_21_1 0
x_2_21_2 0
x_2_22_0 0
x_2_22_1 0
x_2_22_2 0
x_2_23_0 0
x_2_23_1 0
x_2_23_2 0
x_2_24_0 0
x_2_24_1 0
x_2_24_2 0
x_2_25_0 3.3262476034066829e-12
x_2_25_1 1.0000000000007465e+00
x_2_25_2 0
x_2_26_0 0
x_2_26_1 0
x_2_26_2 -7.0303807876371066e-13
x_2_27_0 0
x_2_27_1 -4.2108538877982937e-12
x_2_27_2 0
x_2_28_0 0
x_2_28_1 2.2040008706980529e-12
x_2_28_2 0
x_2_29_0 0
x_2_29_1 0
x_2_29_2 0
x_2_30_0 0
x_2_30_1 0
x_2_30_2 0
x_3_4_0 0
x_3_4_1 0
x_3_4_2 0
x_3_5_0 0
x_3_5_1 0
x_3_5_2 0
x_3_6_0 0
x_3_6_1 0
x_3_6_2 0
x_3_7_0 0
x_3_7_1 0
x_3_7_2 0
x_3_8_0 0
x_3_8_1 0
x_3_8_2 0
x_3_9_0 0
x_3_9_1 0
x_3_9_2 0
x_3_10_0 0
x_3_10_1 0
x_3_10_2 0
x_3_11_0 0
x_3_11_1 0
x_3_11_2 0
x_3_12_0 0
x_3_12_1 0
x_3_12_2 0
x_3_13_0 0
x_3_13_1 0
x_3_13_2 0
x_3_14_0 0
x_3_14_1 1.0000000000001832e+00
x_3_14_2 0
x_3_15_0 0
x_3_15_1 0
x_3_15_2 0
x_3_16_0 0
x_3_16_1 1.2729539644595889e-12
x_3_16_2 0
x_3_17_0 0
x_3_17_1 0
x_3_17_2 0
x_3_18_0 0
x_3_18_1 0
x_3_18_2 0
x_3_19_0 0
x_3_19_1 0
x_3_19_2 0
x_3_20_0 0
x_3_20_1 0
x_3_20_2 0
x_3_21_0 -1.4558354521909678e-12
x_3_21_1 1
x_3_21_2 -1.4558354521909678e-12
x_3_22_0 0
x_3_22_1 0
x_3_22_2 0
x_3_23_0 0
x_3_23_1 0
x_3_23_2 0
x_3_24_0 0
x_3_24_1 0
x_3_24_2 0
x_3_25_0 0
x_3_25_1 0
x_3_25_2 0
x_3_26_0 0
x_3_26_1 0
x_3_26_2 0
x_3_27_0 0
x_3_27_1 0
x_3_27_2 0
x_3_28_0 0
x_3_28_1 0
x_3_28_2 0
x_3_29_0 0
x_3_29_1 0
x_3_29_2 0
x_3_30_0 0
x_3_30_1 0
x_3_30_2 0
x_4_5_0 0
x_4_5_1 0
x_4_5_2 0
x_4_6_0 0
x_4_6_1 0
x_4_6_2 0
x_4_7_0 0
x_4_7_1 0
x_4_7_2 0
x_4_8_0 0
x_4_8_1 0
x_4_8_2 0
x_4_9_0 0
x_4_9_1 0
x_4_9_2 0
x_4_10_0 0
x_4_10_1 0
x_4_10_2 0
x_4_11_0 0
x_4_11_1 0
x_4_11_2 0
x_4_12_0 0
x_4_12_1 0
x_4_12_2 0
x_4_13_0 0
x_4_13_1 0
x_4_13_2 0
x_4_14_0 0
x_4_14_1 0
x_4_14_2 0
x_4_15_0 0
x_4_15_1 0
x_4_15_2 0
x_4_16_0 0
x_4_16_1 0
x_4_16_2 0
x_4_17_0 0
x_4_17_1 0
x_4_17_2 0
x_4_18_0 0
x_4_18_1 0
x_4_18_2 0
x_4_19_0 0
x_4_19_1 1
x_4_19_2 3.8080649744642869e-14
x_4_20_0 0
x_4_20_1 0
x_4_20_2 0
x_4_21_0 0
x_4_21_1 0
x_4_21_2 0
x_4_22_0 0
x_4_22_1 0
x_4_22_2 0
x_4_23_0 0
x_4_23_1 0
x_4_23_2 0
x_4_24_0 0
x_4_24_1 0
x_4_24_2 0
x_4_25_0 0
x_4_25_1 0
x_4_25_2 0
x_4_26_0 -6.3721250498360860e-13
x_4_26_1 0
x_4_26_2 0
x_4_27_0 0
x_4_27_1 0
x_4_27_2 0
x_4_28_0 0
x_4_28_1 0
x_4_28_2 0
x_4_29_0 -3.8080649744642869e-14
x_4_29_1 9.9999999999952294e-01
x_4_29_2 0
x_4_30_0 0
x_4_30_1 0
x_4_30_2 0
x_5_6_0 0
x_5_6_1 0
x_5_6_2 0
x_5_7_0 0
x_5_7_1 0
x_5_7_2 0
x_5_8_0 0
x_5_8_1 0
x_5_8_2 0
x_5_9_0 0
x_5_9_1 0
x_5_9_2 0
x_5_10_0 0
x_5_10_1 0
x_5_10_2 0
x_5_11_0 0
x_5_11_1 0
x_5_11_2 0
x_5_12_0 0
x_5_12_1 0
x_5_12_2 0
x_5_13_0 0
x_5_13_1 0
x_5_13_2 0
x_5_14_0 0
x_5_14_1 0
x_5_14_2 0
x_5_15_0 0
x_5_15_1 0
x_5_15_2 0
x_5_16_0 0
x_5_16_1 0
x_5_16_2 0
x_5_17_0 0
x_5_17_1 0
x_5_17_2 0
x_5_18_0 0
x_5_18_1 0
x_5_18_2 0
x_5_19_0 0
x_5_19_1 0
x_5_19_2 0
x_5_20_0 0
x_5_20_1 0
x_5_20_2 0
x_5_21_0 0
x_5_21_1 0
x_5_21_2 0
x_5_22_0 0
x_5_22_1 0
x_5_22_2 0
x_5_23_0 1.0000000000039635e+00
x_5_23_1 0
x_5_23_2 -2.8767055262492895e-12
x_5_24_0 0
x_5_24_1 0
x_5_24_2 0
x_5_25_0 0
x_5_25_1 0
x_5_25_2 0
x_5_26_0 1.0000000000060230e+00
x_5_26_1 0
x_5_26_2 0
x_5_27_0 0
x_5_27_1 0
x_5_27_2 0
x_5_28_0 0
x_5_28_1 0
x_5_28_2 0
x_5_29_0 0
x_5_29_1 0
x_5_29_2 0
x_5_30_0 -8.0230266874536937e-12
x_5_30_1 0
x_5_30_2 0
x_6_7_0 0
x_6_7_1 0
x_6_7_2 0
x_6_8_0 0
x_6_8_1 0
x_6_8_2 0
x_6_9_0 0
x_6_9_1 0
x_6_9_2 0
x_6_10_0 0
x_6_10_1 0
x_6_10_2 0
x_6_11_0 0
x_6_11_1 1
x_6_11_2 0
x_6_12_0 0
x_6_12_1 0
x_6_12_2 0
x_6_13_0 0
x_6_13_1 0
x_6_13_2 0
x_6_14_0 0
x_6_14_1 0
x_6_14_2 0
x_6_15_0 0
x_6_15_1 0
x_6_15_2 0
x_6_16_0 0
x_6_16_1 0
x_6_16_2 0
x_6_17_0 0
x_6_17_1 0
x_6_17_2 0
x_6_18_0 0
x_6_18_1 0
x_6_18_2 0
x_6_19_0 0
x_6_19_1 0
x_6_19_2 0
x_6_20_0 0
x_6_20_1 0
x_6_20_2 0
x_6_21_0 0
x_6_21_1 0
x_6_21_2 0
x_6_22_0 0
x_6_22_1 0
x_6_22_2 0
x_6_23_0 0
x_6_23_1 1.0000000000029665e+00
x_6_23_2 0
x_6_24_0 0
x_6_24_1 0
x_6_24_2 0
x_6_25_0 0
x_6_25_1 0
x_6_25_2 0
x_6_26_0 0
x_6_26_1 0
x_6_26_2 0
x_6_27_0 0
x_6_27_1 0
x_6_27_2 0
x_6_28_0 0
x_6_28_1 0
x_6_28_2 0
x_6_29_0 0
x_6_29_1 0
x_6_29_2 0
x_6_30_0 0
x_6_30_1 0
x_6_30_2 0
x_7_8_0 0
x_7_8_1 0
x_7_8_2 0
x_7_9_0 0
x_7_9_1 0
x_7_9_2 0
x_7_10_0 0
x_7_10_1 0
x_7_10_2 0
x_7_11_0 0
x_7_11_1 0
x_7_11_2 0
x_7_12_0 2.3516053190011386e-13
x_7_12_1 9.9999999999924083e-01
x_7_12_2 7.0241035210472091e-13
x_7_13_0 0
x_7_13_1 0
x_7_13_2 0
x_7_14_0 0
x_7_14_1 0
x_7_14_2 0
x_7_15_0 0
x_7_15_1 0
x_7_15_2 0
x_7_16_0 0
x_7_16_1 0
x_7_16_2 0
x_7_17_0 0
x_7_17_1 -1.4669376824372193e-12
x_7_17_2 0
x_7_18_0 0
x_7_18_1 4.1633363423443370e-17
x_7_18_2 0
x_7_19_0 0
x_7_19_1 0
x_7_19_2 0
x_7_20_0 0
x_7_20_1 0
x_7_20_2 0
x_7_21_0 0
x_7_21_1 0
x_7_21_2 0
x_7_22_0 0
x_7_22_1 1.0000000000004166e+00
x_7_22_2 -7.0241035210472091e-13
x_7_23_0 0
x_7_23_1 0
x_7_23_2 0
x_7_24_0 0
x_7_24_1 0
x_7_24_2 0
x_7_25_0 0
x_7_25_1 0
x_7_25_2 0
x_7_26_0 0
x_7_26_1 0
x_7_26_2 0
x_7_27_0 -7.6361139633718267e-13
x_7_27_1 0
x_7_27_2 0
x_7_28_0 0
x_7_28_1 0
x_7_28_2 0
x_7_29_0 0
x_7_29_1 0
x_7_29_2 0
x_7_30_0 0
x_7_30_1 0
x_7_30_2 0
x_8_9_0 0
x_8_9_1 0
x_8_9_2 0
x_8_10_0 0
x_8_10_1 0
x_8_10_2 0
x_8_11_0 0
x_8_11_1 0
x_8_11_2 0
x_8_12_0 1.7902346272080649e-12
x_8_12_1 0
x_8_12_2 -1.6879244872425797e-12
x_8_13_0 0
x_8_13_1 0
x_8_13_2 0
x_8_14_0 0
x_8_14_1 0
x_8_14_2 0
x_8_15_0 -9.07042945274418e-14
x_8_15_1 0
x_8_15_2 0
x_8_16_0 0
x_8_16_1 0
x_8_16_2 0
x_8_17_0 3.5828272713612277e-14
x_8_17_1 0
x_8_17_2 0
x_8_18_0 -8.3266726846886741e-17
x_8_18_1 0
x_8_18_2 0
x_8_19_0 0
x_8_19_1 0
x_8_19_2 0
x_8_20_0 0
x_8_20_1 0
x_8_20_2 0
x_8_21_0 0
x_8_21_1 0
x_8_21_2 0
x_8_22_0 0
x_8_22_1 0
x_8_22_2 0
x_8_23_0 0
x_8_23_1 0
x_8_23_2 0
x_8_24_0 0
x_8_24_1 1
x_8_24_2 0
x_8_25_0 0
x_8_25_1 0
x_8_25_2 0
x_8_26_0 0
x_8_26_1 0
x_8_26_2 0
x_8_27_0 1.7349455205817321e-12
x_8_27_1 0
x_8_27_2 0
x_8_28_0 -3.3216485118003902e-12
x_8_28_1 0
x_8_28_2 2.9420667922706480e-13
x_8_29_0 0
x_8_29_1 0
x_8_29_2 0
x_8_30_0 0
x_8_30_1 0
x_8_30_2 0
x_9_10_0 0
x_9_10_1 0
x_9_10_2 0
x_9_11_0 0
x_9_11_1 9.9999999999991174e-01
x_9_11_2 0
x_9_12_0 0
x_9_12_1 0
x_9_12_2 0
x_9_13_0 0
x_9_13_1 0
x_9_13_2 0
x_9_14_0 0
x_9_14_1 0
x_9_14_2 0
x_9_15_0 0
x_9_15_1 0
x_9_15_2 0
x_9_16_0 0
x_9_16_1 0
x_9_16_2 0
x_9_17_0 0
x_9_17_1 0
x_9_17_2 0
x_9_18_0 0
x_9_18_1 0
x_9_18_2 0
x_9_19_0 0
x_9_19_1 0
x_9_19_2 0
x_9_20_0 0
x_9_20_1 0
x_9_20_2 0
x_9_21_0 0
x_9_21_1 0
x_9_21_2 0
x_9_22_0 -5.3845816694320092e-15
x_9_22_1 9.9999999999999334e-01
x_9_22_2 -7.0418670894412116e-13
x_9_23_0 0
x_9_23_1 0
x_9_23_2 0
x_9_24_0 0
x_9_24_1 0
x_9_24_2 0
x_9_25_0 0
x_9_25_1 0
x_9_25_2 0
x_9_26_0 0
x_9_26_1 0
x_9_26_2 0
x_9_27_0 -5.5233595475101538e-15
x_9_27_1 0
x_9_27_2 0
x_9_28_0 0
x_9_28_1 0
x_9_28_2 0
x_9_29_0 0
x_9_29_1 0
x_9_29_2 0
x_9_30_0 0
x_9_30_1 0
x_9_30_2 0
x_10_11_0 0
x_10_11_1 0
x_10_11_2 0
x_10_12_0 0
x_10_12_1 0
x_10_12_2 0
x_10_13_0 0
x_10_13_1 0
x_10_13_2 0
x_10_14_0 0
x_10_14_1 0
x_10_14_2 0
x_10_15_0 0
x_10_15_1 1
x_10_15_2 0
x_10_16_0 0
x_10_16_1 0
x_10_16_2 0
x_10_17_0 0
x_10_17_1 0
x_10_17_2 0
x_10_18_0 0
x_10_18_1 0
x_10_18_2 0
x_10_19_0 0
x_10_19_1 0
x_10_19_2 0
x_10_20_0 0
x_10_20_1 0
x_10_20_2 0
x_10_21_0 0
x_10_21_1 0
x_10_21_2 0
x_10_22_0 0
x_10_22_1 -4.5515898558243749e-13
x_10_22_2 0
x_10_23_0 0
x_10_23_1 0
x_10_23_2 0
x_10_24_0 0
x_10_24_1 0
x_10_24_2 0
x_10_25_0 0
x_10_25_1 0
x_10_25_2 0
x_10_26_0 0
x_10_26_1 0
x_10_26_2 0
x_10_27_0 0
x_10_27_1 1.0000000000004550e+00
x_10_27_2 0
x_10_28_0 0
x_10_28_1 0
x_10_28_2 0
x_10_29_0 0
x_10_29_1 0
x_10_29_2 0
x_10_30_0 0
x_10_30_1 0
x_10_30_2 0
x_11_12_0 0
x_11_12_1 0
x_11_12_2 0
x_11_13_0 0
x_11_13_1 0
x_11_13_2 0
x_11_14_0 0
x_11_14_1 0
x_11_14_2 0
x_11_15_0 0
x_11_15_1 0
x_11_15_2 0
x_11_16_0 0
x_11_16_1 0
x_11_16_2 0
x_11_17_0 0
x_11_17_1 0
x_11_17_2 0
x_11_18_0 0
x_11_18_1 0
x_11_18_2 0
x_11_19_0 0
x_11_19_1 0
x_11_19_2 0
x_11_20_0 0
x_11_20_1 0
x_11_20_2 0
x_11_21_0 0
x_11_21_1 0
x_11_21_2 0
x_11_22_0 0
x_11_22_1 0
x_11_22_2 0
x_11_23_0 0
x_11_23_1 0
x_11_23_2 0
x_11_24_0 0
x_11_24_1 0
x_11_24_2 0
x_11_25_0 0
x_11_25_1 0
x_11_25_2 0
x_11_26_0 0
x_11_26_1 0
x_11_26_2 0
x_11_27_0 0
x_11_27_1 0
x_11_27_2 0
x_11_28_0 0
x_11_28_1 0
x_11_28_2 0
x_11_29_0 0
x_11_29_1 0
x_11_29_2 0
x_11_30_0 0
x_11_30_1 0
x_11_30_2 0
x_12_13_0 0
x_12_13_1 0
x_12_13_2 0
x_12_14_0 0
x_12_14_1 0
x_12_14_2 0
x_12_15_0 0
x_12_15_1 0
x_12_15_2 0
x_12_16_0 0
x_12_16_1 0
x_12_16_2 0
x_12_17_0 0
x_12_17_1 -6.9994929802704e-13
x_12_17_2 5.95218319077162e-13
x_12_18_0 0
x_12_18_1 1
x_12_18_2 -1.3877787807814457e-17
x_12_19_0 0
x_12_19_1 0
x_12_19_2 0
x_12_20_0 0
x_12_20_1 0
x_12_20_2 0
x_12_21_0 0
x_12_21_1 0
x_12_21_2 0
x_12_22_0 0
x_12_22_1 0
x_12_22_2 0
x_12_23_0 0
x_12_23_1 0
x_12_23_2 0
x_12_24_0 0
x_12_24_1 1.4590550989623807e-12
x_12_24_2 3.9047317569107287e-13
x_12_25_0 0
x_12_25_1 0
x_12_25_2 0
x_12_26_0 0
x_12_26_1 0
x_12_26_2 0
x_12_27_0 3.1706304248757533e-12
x_12_27_1 0
x_12_27_2 0
x_12_28_0 2.9078406349469788e-12
x_12_28_1 0
x_12_28_2 0
x_12_29_0 0
x_12_29_1 0
x_12_29_2 0
x_12_30_0 0
x_12_30_1 0
x_12_30_2 0
x_13_14_0 0
x_13_14_1 0
x_13_14_2 0
x_13_15_0 0
x_13_15_1 0
x_13_15_2 0
x_13_16_0 0
x_13_16_1 0
x_13_16_2 0
x_13_17_0 0
x_13_17_1 0
x_13_17_2 0
x_13_18_0 0
x_13_18_1 0
x_13_18_2 0
x_13_19_0 0
x_13_19_1 0
x_13_19_2 0
x_13_20_0 0
x_13_20_1 1
x_13_20_2 0
x_13_21_0 0
x_13_21_1 1
x_13_21_2 0
x_13_22_0 0
x_13_22_1 0
x_13_22_2 0
x_13_23_0 0
x_13_23_1 0
x_13_23_2 0
x_13_24_0 0
x_13_24_1 0
x_13_24_2 0
x_13_25_0 0
x_13_25_1 0
x_13_25_2 0
x_13_26_0 0
x_13_26_1 0
x_13_26_2 0
x_13_27_0 0
x_13_27_1 0
x_13_27_2 0
x_13_28_0 0
x_13_28_1 0
x_13_28_2 0
x_13_29_0 0
x_13_29_1 0
x_13_29_2 0
x_13_30_0 0
x_13_30_1 0
x_13_30_2 0
x_14_15_0 0
x_14_15_1 0
x_14_15_2 0
x_14_16_0 0
x_14_16_1 0
x_14_16_2 0
x_14_17_0 0
x_14_17_1 0
x_14_17_2 0
x_14_18_0 0
x_14_18_1 0
x_14_18_2 0
x_14_19_0 0
x_14_19_1 0
x_14_19_2 0
x_14_20_0 0
x_14_20_1 0
x_14_20_2 0
x_14_21_0 0
x_14_21_1 -7.2887529345422308e-13
x_14_21_2 0
x_14_22_0 0
x_14_22_1 0
x_14_22_2 0
x_14_23_0 0
x_14_23_1 0
x_14_23_2 0
x_14_24_0 0
x_14_24_1 0
x_14_24_2 0
x_14_25_0 0
x_14_25_1 0
x_14_25_2 0
x_14_26_0 0
x_14_26_1 0
x_14_26_2 0
x_14_27_0 0
x_14_27_1 0
x_14_27_2 0
x_14_28_0 0
x_14_28_1 0
x_14_28_2 0
x_14_29_0 0
x_14_29_1 5.4584115005695821e-13
x_14_29_2 0
x_14_30_0 0
x_14_30_1 0
x_14_30_2 0
x_15_16_0 0
x_15_16_1 0
x_15_16_2 0
x_15_17_0 0
x_15_17_1 0
x_15_17_2 0
x_15_18_0 0
x_15_18_1 0
x_15_18_2 0
x_15_19_0 0
x_15_19_1 0
x_15_19_2 0
x_15_20_0 0
x_15_20_1 0
x_15_20_2 0
x_15_21_0 0
x_15_21_1 0
x_15_21_2 0
x_15_22_0 0
x_15_22_1 0
x_15_22_2 0
x_15_23_0 0
x_15_23_1 0
x_15_23_2 0
x_15_24_0 0
x_15_24_1 0
x_15_24_2 0
x_15_25_0 0
x_15_25_1 0
x_15_25_2 0
x_15_26_0 0
x_15_26_1 0
x_15_26_2 2.9420667922706480e-13
x_15_27_0 -9.07042945274418e-14
x_15_27_1 0
x_15_27_2 0
x_15_28_0 0
x_15_28_1 0
x_15_28_2 0
x_15_29_0 0
x_15_29_1 0
x_15_29_2 0
x_15_30_0 0
x_15_30_1 0
x_15_30_2 0
x_16_17_0 0
x_16_17_1 0
x_16_17_2 0
x_16_18_0 0
x_16_18_1 0
x_16_18_2 0
x_16_19_0 0
x_16_19_1 1.0000000000029607e+00
x_16_19_2 0
x_16_20_0 0
x_16_20_1 0
x_16_20_2 0
x_16_21_0 0
x_16_21_1 0
x_16_21_2 0
x_16_22_0 0
x_16_22_1 0
x_16_22_2 0
x_16_23_0 0
x_16_23_1 0
x_16_23_2 0
x_16_24_0 0
x_16_24_1 0
x_16_24_2 0
x_16_25_0 0
x_16_25_1 1.0000000000007092e+00
x_16_25_2 0
x_16_26_0 0
x_16_26_1 0
x_16_26_2 -5.7008738062801748e-13
x_16_27_0 0
x_16_27_1 0
x_16_27_2 0
x_16_28_0 0
x_16_28_1 0
x_16_28_2 0
x_16_29_0 0
x_16_29_1 -3.0692948183030921e-12
x_16_29_2 3.8857805861880479e-14
x_16_30_0 0
x_16_30_1 0
x_16_30_2 0
x_17_18_0 0
x_17_18_1 1
x_17_18_2 -2.7755575615628914e-17
x_17_19_0 0
x_17_19_1 0
x_17_19_2 0
x_17_20_0 0
x_17_20_1 1.0000000000052665e+00
x_17_20_2 0
x_17_21_0 0
x_17_21_1 2.1862511800918583e-12
x_17_21_2 0
x_17_22_0 0
x_17_22_1 0
x_17_22_2 0
x_17_23_0 0
x_17_23_1 0
x_17_23_2 0
x_17_24_0 0
x_17_24_1 0
x_17_24_2 0
x_17_25_0 0
x_17_25_1 0
x_17_25_2 0
x_17_26_0 0
x_17_26_1 0
x_17_26_2 0
x_17_27_0 0
x_17_27_1 0
x_17_27_2 0
x_17_28_0 0
x_17_28_1 0
x_17_28_2 0
x_17_29_0 0
x_17_29_1 0
x_17_29_2 0
x_17_30_0 0
x_17_30_1 0
x_17_30_2 0
x_18_19_0 0
x_18_19_1 0
x_18_19_2 0
x_18_20_0 0
x_18_20_1 0
x_18_20_2 0
x_18_21_0 0
x_18_21_1 0
x_18_21_2 0
x_18_22_0 0
x_18_22_1 0
x_18_22_2 0
x_18_23_0 0
x_18_23_1 0
x_18_23_2 0
x_18_24_0 0
x_18_24_1 0
x_18_24_2 0
x_18_25_0 0
x_18_25_1 0
x_18_25_2 0
x_18_26_0 0
x_18_26_1 0
x_18_26_2 0
x_18_27_0 0
x_18_27_1 0
x_18_27_2 0
x_18_28_0 0
x_18_28_1 0
x_18_28_2 0
x_18_29_0 0
x_18_29_1 0
x_18_29_2 0
x_18_30_0 0
x_18_30_1 0
x_18_30_2 0
x_19_20_0 0
x_19_20_1 0
x_19_20_2 0
x_19_21_0 0
x_19_21_1 0
x_19_21_2 0
x_19_22_0 0
x_19_22_1 0
x_19_22_2 0
x_19_23_0 0
x_19_23_1 0
x_19_23_2 0
x_19_24_0 0
x_19_24_1 0
x_19_24_2 0
x_19_25_0 0
x_19_25_1 0
x_19_25_2 0
x_19_26_0 7.9436457411929950e-14
x_19_26_1 0
x_19_26_2 -7.6161299489285739e-14
x_19_27_0 0
x_19_27_1 0
x_19_27_2 0
x_19_28_0 0
x_19_28_1 -4.6582460111466162e-12
x_19_28_2 0
x_19_29_0 -5.9914573302677354e-13
x_19_29_1 0
x_19_29_2 0
x_19_30_0 0
x_19_30_1 0
x_19_30_2 0
x_20_21_0 0
x_20_21_1 0
x_20_21_2 0
x_20_22_0 0
x_20_22_1 0
x_20_22_2 0
x_20_23_0 0
x_20_23_1 0
x_20_23_2 0
x_20_24_0 0
x_20_24_1 0
x_20_24_2 0
x_20_25_0 0
x_20_25_1 0
x_20_25_2 0
x_20_26_0 0
x_20_26_1 0
x_20_26_2 0
x_20_27_0 0
x_20_27_1 0
x_20_27_2 0
x_20_28_0 0
x_20_28_1 0
x_20_28_2 0
x_20_29_0 0
x_20_29_1 0
x_20_29_2 0
x_20_30_0 0
x_20_30_1 0
x_20_30_2 0
x_21_22_0 0
x_21_22_1 0
x_21_22_2 0
x_21_23_0 0
x_21_23_1 0
x_21_23_2 0
x_21_24_0 0
x_21_24_1 0
x_21_24_2 0
x_21_25_0 0
x_21_25_1 0
x_21_25_2 0
x_21_26_0 0
x_21_26_1 0
x_21_26_2 0
x_21_27_0 0
x_21_27_1 0
x_21_27_2 0
x_21_28_0 0
x_21_28_1 0
x_21_28_2 0
x_21_29_0 0
x_21_29_1 0
x_21_29_2 0
x_21_30_0 0
x_21_30_1 0
x_21_30_2 0
x_22_23_0 0
x_22_23_1 0
x_22_23_2 0
x_22_24_0 0
x_22_24_1 0
x_22_24_2 0
x_22_25_0 0
x_22_25_1 0
x_22_25_2 0
x_22_26_0 0
x_22_26_1 0
x_22_26_2 0
x_22_27_0 1.8870460749553786e-12
x_22_27_1 0
x_22_27_2 0
x_22_28_0 0
x_22_28_1 0
x_22_28_2 0
x_22_29_0 0
x_22_29_1 0
x_22_29_2 0
x_22_30_0 0
x_22_30_1 0
x_22_30_2 0
x_23_24_0 0
x_23_24_1 0
x_23_24_2 0
x_23_25_0 0
x_23_25_1 0
x_23_25_2 0
x_23_26_0 0
x_23_26_1 0
x_23_26_2 0
x_23_27_0 0
x_23_27_1 0
x_23_27_2 0
x_23_28_0 0
x_23_28_1 0
x_23_28_2 0
x_23_29_0 0
x_23_29_1 0
x_23_29_2 0
x_23_30_0 0
x_23_30_1 0
x_23_30_2 0
x_24_25_0 0
x_24_25_1 0
x_24_25_2 0
x_24_26_0 0
x_24_26_1 0
x_24_26_2 0
x_24_27_0 0
x_24_27_1 9.9999999999692690e-01
x_24_27_2 0
x_24_28_0 0
x_24_28_1 0
x_24_28_2 0
x_24_29_0 0
x_24_29_1 0
x_24_29_2 0
x_24_30_0 0
x_24_30_1 0
x_24_30_2 0
x_25_26_0 -1.1959081254887709e-12
x_25_26_1 0
x_25_26_2 2.7874395176890048e-12
x_25_27_0 -3.5575709045332360e-13
x_25_27_1 0
x_25_27_2 0
x_25_28_0 -2.9570929038769123e-12
x_25_28_1 0
x_25_28_2 0
x_25_29_0 0
x_25_29_1 0
x_25_29_2 0
x_25_30_0 0
x_25_30_1 0
x_25_30_2 0
x_26_27_0 -5.9975913124787894e-12
x_26_27_1 0
x_26_27_2 0
x_26_28_0 1
x_26_28_1 0
x_26_28_2 0
x_26_29_0 -1.5936685606642138e-12
x_26_29_1 0
x_26_29_2 0
x_26_30_0 3.3222313788883184e-12
x_26_30_1 0
x_26_30_2 0
x_27_28_0 1.0000000000029845e+00
x_27_28_1 4.3402503813183557e-12
x_27_28_2 0
x_27_29_0 0
x_27_29_1 0
x_27_29_2 0
x_27_30_0 1.0000000000016704e+00
x_27_30_1 0
x_27_30_2 0
x_28_29_0 0
x_28_29_1 0
x_28_29_2 0
x_28_30_0 0
x_28_30_1 0
x_28_30_2 0
x_29_30_0 0
x_29_30_1 0
x_29_30_2 0
